\ LP format - for model browsing. Use MPS format to capture full model detail.
Minimize
  x_4 + x_5
Subject To
 R0: - 8 x_0 - 3 x_1 + 5 x_2 - x_3 - x_4 = -4
 R1: - 3 x_0 - x_1 + 2 x_2 + x_3 - x_5 = -1
Bounds
End
